30	100	100	100
28	45	31
7	25	10
26	10	45
36	41	3
39	43	31
41	14	4
1	9	11
36	33	24
11	31	35
43	28	5
46	1	13
44	25	38
39	37	29
4	36	45
22	18	19
29	30	44
47	36	44
40	11	26
30	25	26
38	4	17
4	46	5
38	46	14
12	40	34
29	25	12
44	14	21
14	45	26
4	33	9
22	21	30
42	9	45
44	45	21
